(set-info :smt-lib-version 2.6)
(set-logic QF_UF)
(set-info :source |
Generated by: Aman Goel (amangoel@umich.edu), Karem A. Sakallah (karem@umich.edu)
Generated on: 2018-04-06

Generated by the tool Averroes 2 (successor of [1]) which implements safety property
verification on hardware systems.

This SMT problem belongs to a set of SMT problems generated by applying Averroes 2
to benchmarks derived from [2-5].

A total of 412 systems (345 from [2], 19 from [3], 26 from [4], 22 from [5]) were
syntactically converted from their original formats (using [6, 7]), and given to 
Averroes 2 to perform property checking with abstraction (wide bit-vectors -> terms, 
wide operators -> UF) using SMT solvers [8, 9].

[1] Lee S., Sakallah K.A. (2014) Unbounded Scalable Verification Based on Approximate
Property-Directed Reachability and Datapath Abstraction. In: Biere A., Bloem R. (eds)
Computer Aided Verification. CAV 2014. Lecture Notes in Computer Science, vol 8559.
Springer, Cham
[2] http://fmv.jku.at/aiger/index.html#beem
[3] http://www.cs.cmu.edu/~modelcheck/vcegar
[4] http://www.cprover.org/hardware/v2c
[5] http://github.com/aman-goel/verilogbench
[6] http://www.clifford.at/yosys
[7] http://github.com/chengyinwu/V3
[8] http://github.com/Z3Prover/z3
[9] http://github.com/SRI-CSL/yices2

id: bakery.6.prop1
query-maker: "Yices 2"
query-time: 0.152000 ms
query-class: abstract
query-category: oneshot
query-type: regular
status: sat
|)
(set-info :license "https://creativecommons.org/licenses/by/4.0/")
(set-info :category "industrial")

;
(set-info :status sat)
(declare-sort utt$8 0)
(declare-sort utt$32 0)
(declare-fun Add_32_32_32 (utt$32 utt$32 ) utt$32)
(declare-fun GrEq_1_32_32 (utt$32 utt$32 ) Bool)
(declare-fun y$1 () Bool)
(declare-fun y$11 () Bool)
(declare-fun y$13 () Bool)
(declare-fun y$15 () Bool)
(declare-fun y$1663 () Bool)
(declare-fun y$1666 () Bool)
(declare-fun y$1667 () Bool)
(declare-fun y$17 () Bool)
(declare-fun y$1706 () Bool)
(declare-fun y$1730 () Bool)
(declare-fun y$1740 () Bool)
(declare-fun y$1748 () Bool)
(declare-fun y$1749 () Bool)
(declare-fun y$1750 () Bool)
(declare-fun y$1751 () Bool)
(declare-fun y$1752 () Bool)
(declare-fun y$1753 () Bool)
(declare-fun y$1754 () Bool)
(declare-fun y$1763 () Bool)
(declare-fun y$19 () Bool)
(declare-fun y$21 () Bool)
(declare-fun y$23 () Bool)
(declare-fun y$25 () Bool)
(declare-fun y$27 () Bool)
(declare-fun y$29 () Bool)
(declare-fun y$3 () Bool)
(declare-fun y$31 () Bool)
(declare-fun y$33 () Bool)
(declare-fun y$35 () Bool)
(declare-fun y$37 () Bool)
(declare-fun y$39 () Bool)
(declare-fun y$41 () Bool)
(declare-fun y$44 () Bool)
(declare-fun y$46 () Bool)
(declare-fun y$48 () Bool)
(declare-fun y$5 () Bool)
(declare-fun y$50 () Bool)
(declare-fun y$52 () Bool)
(declare-fun y$54 () Bool)
(declare-fun y$56 () Bool)
(declare-fun y$58 () Bool)
(declare-fun y$60 () Bool)
(declare-fun y$62 () Bool)
(declare-fun y$64 () Bool)
(declare-fun y$66 () Bool)
(declare-fun y$68 () Bool)
(declare-fun y$7 () Bool)
(declare-fun y$70 () Bool)
(declare-fun y$72 () Bool)
(declare-fun y$74 () Bool)
(declare-fun y$9 () Bool)
(declare-fun y$a_CS_P_0 () Bool)
(declare-fun y$a_CS_P_0$next () Bool)
(declare-fun y$a_CS_P_1 () Bool)
(declare-fun y$a_CS_P_1$next () Bool)
(declare-fun y$a_CS_P_2 () Bool)
(declare-fun y$a_CS_P_3 () Bool)
(declare-fun y$a_NCS_P_0 () Bool)
(declare-fun y$a_NCS_P_1 () Bool)
(declare-fun y$a_NCS_P_2 () Bool)
(declare-fun y$a_NCS_P_3 () Bool)
(declare-fun y$a_choose_P_0 () Bool)
(declare-fun y$a_choose_P_1 () Bool)
(declare-fun y$a_choose_P_2 () Bool)
(declare-fun y$a_choose_P_3 () Bool)
(declare-fun y$a_for_loop_P_0 () Bool)
(declare-fun y$a_for_loop_P_1 () Bool)
(declare-fun y$a_for_loop_P_2 () Bool)
(declare-fun y$a_for_loop_P_3 () Bool)
(declare-fun y$a_wait_P_0 () Bool)
(declare-fun y$a_wait_P_1 () Bool)
(declare-fun y$a_wait_P_2 () Bool)
(declare-fun y$a_wait_P_3 () Bool)
(declare-fun y$dve_invalid () Bool)
(declare-fun y$id49 () Bool)
(declare-fun y$id49_op () Bool)
(declare-fun y$n0s32 () utt$32)
(declare-fun y$n0s8 () utt$8)
(declare-fun y$n1s32 () utt$32)
(declare-fun y$n1s8 () utt$8)
(declare-fun y$n2s32 () utt$32)
(declare-fun y$n2s8 () utt$8)
(declare-fun y$n3s32 () utt$32)
(declare-fun y$n4s32 () utt$32)
(declare-fun y$n4s8 () utt$8)
(declare-fun y$n5s32 () utt$32)
(declare-fun y$prop () Bool)
(declare-fun y$v3_1517448493_40 () utt$32)
(declare-fun y$v3_1517448493_40$next () utt$32)
(declare-fun y$v3_1517448493_40$next_op () utt$32)
(declare-fun y$v3_1517448493_40_op () utt$32)
(declare-fun y$v3_1517448493_41 () utt$32)
(declare-fun y$v3_1517448493_41$next () utt$32)
(declare-fun y$v3_1517448493_41$next_op () utt$32)
(declare-fun y$v3_1517448493_41_op () utt$32)
(declare-fun y$v3_1517448493_42 () utt$32)
(declare-fun y$v3_1517448493_42$next () utt$32)
(declare-fun y$v3_1517448493_42$next_op () utt$32)
(declare-fun y$v3_1517448493_42_op () utt$32)
(declare-fun y$v3_1517448493_43 () utt$32)
(declare-fun y$v3_1517448493_43_op () utt$32)
(declare-fun y$v3_1517448493_44 () utt$32)
(declare-fun y$v3_1517448493_44_op () utt$32)
(declare-fun y$v3_1517448493_45 () utt$32)
(declare-fun y$v3_1517448493_45_op () utt$32)
(declare-fun y$v3_1517448493_46 () utt$32)
(declare-fun y$v3_1517448493_46_op () utt$32)
(declare-fun y$v3_1517448493_47 () Bool)
(declare-fun y$v3_1517448493_47_op () Bool)
(declare-fun y$v_choosing_0 () utt$8)
(declare-fun y$v_choosing_1 () utt$8)
(declare-fun y$v_choosing_2 () utt$8)
(declare-fun y$v_choosing_3 () utt$8)
(declare-fun y$v_j_P_0 () utt$8)
(declare-fun y$v_j_P_1 () utt$8)
(declare-fun y$v_j_P_2 () utt$8)
(declare-fun y$v_j_P_3 () utt$8)
(declare-fun y$v_max_P_0 () utt$8)
(declare-fun y$v_max_P_1 () utt$8)
(declare-fun y$v_max_P_2 () utt$8)
(declare-fun y$v_max_P_3 () utt$8)
(declare-fun y$v_number_0 () utt$8)
(declare-fun y$v_number_1 () utt$8)
(declare-fun y$v_number_2 () utt$8)
(declare-fun y$v_number_3 () utt$8)
(assert (distinct y$n0s8 y$n1s8 y$n2s8 y$n4s8))
(assert (distinct y$n1s32 y$n4s32 y$n5s32 y$n0s32 y$n2s32 y$n3s32))
(assert (= y$a_CS_P_0 (not y$1)))
(assert (= y$a_CS_P_1 (not y$3)))
(assert (= y$a_CS_P_2 (not y$5)))
(assert (= y$a_CS_P_3 (not y$7)))
(assert (= y$a_NCS_P_0 (not y$9)))
(assert (= y$a_NCS_P_1 (not y$11)))
(assert (= y$a_NCS_P_2 (not y$13)))
(assert (= y$a_NCS_P_3 (not y$15)))
(assert (= y$a_choose_P_0 (not y$17)))
(assert (= y$a_choose_P_1 (not y$19)))
(assert (= y$a_choose_P_2 (not y$21)))
(assert (= y$a_choose_P_3 (not y$23)))
(assert (= y$a_for_loop_P_0 (not y$25)))
(assert (= y$a_for_loop_P_1 (not y$27)))
(assert (= y$a_for_loop_P_2 (not y$29)))
(assert (= y$a_for_loop_P_3 (not y$31)))
(assert (= y$a_wait_P_0 (not y$33)))
(assert (= y$a_wait_P_1 (not y$35)))
(assert (= y$a_wait_P_2 (not y$37)))
(assert (= y$a_wait_P_3 (not y$39)))
(assert (= y$dve_invalid (not y$41)))
(assert (= y$44 (= y$n0s8 y$v_choosing_0)))
(assert (= y$46 (= y$n0s8 y$v_choosing_1)))
(assert (= y$48 (= y$n0s8 y$v_choosing_2)))
(assert (= y$50 (= y$n0s8 y$v_choosing_3)))
(assert (= y$52 (= y$n0s8 y$v_j_P_0)))
(assert (= y$54 (= y$n0s8 y$v_j_P_1)))
(assert (= y$56 (= y$n0s8 y$v_j_P_2)))
(assert (= y$58 (= y$n0s8 y$v_j_P_3)))
(assert (= y$60 (= y$n0s8 y$v_max_P_0)))
(assert (= y$62 (= y$n0s8 y$v_max_P_1)))
(assert (= y$64 (= y$n0s8 y$v_max_P_2)))
(assert (= y$66 (= y$n0s8 y$v_max_P_3)))
(assert (= y$68 (= y$n0s8 y$v_number_0)))
(assert (= y$70 (= y$n0s8 y$v_number_1)))
(assert (= y$72 (= y$n0s8 y$v_number_2)))
(assert (= y$74 (= y$n0s8 y$v_number_3)))
(assert (= y$prop (not y$1706)))
(assert (= y$v3_1517448493_40_op (ite y$a_CS_P_0 y$n1s32 y$n0s32)))
(assert (= y$v3_1517448493_41_op (ite y$a_CS_P_1 y$n1s32 y$n0s32)))
(assert (= y$v3_1517448493_42_op (Add_32_32_32 y$v3_1517448493_40_op y$v3_1517448493_41_op)))
(assert (= y$v3_1517448493_43_op (ite y$a_CS_P_2 y$n1s32 y$n0s32)))
(assert (= y$v3_1517448493_44_op (Add_32_32_32 y$v3_1517448493_42_op y$v3_1517448493_43_op)))
(assert (= y$v3_1517448493_45_op (ite y$a_CS_P_3 y$n1s32 y$n0s32)))
(assert (= y$v3_1517448493_46_op (Add_32_32_32 y$v3_1517448493_44_op y$v3_1517448493_45_op)))
(assert (= y$v3_1517448493_47_op (GrEq_1_32_32 y$n1s32 y$v3_1517448493_46_op)))
(assert (= y$v3_1517448493_47_op (not y$1663)))
(assert (= y$id49_op (and y$41 y$1663)))
(assert (= y$id49_op (not y$1666)))
(assert (= y$1667 (= y$prop y$1666)))
(assert (= y$a_CS_P_0$next (not y$1749)))
(assert (= y$a_CS_P_1$next (not y$1750)))
(assert (= y$v3_1517448493_40$next_op (ite y$a_CS_P_0$next y$n1s32 y$n0s32)))
(assert (= y$v3_1517448493_41$next_op (ite y$a_CS_P_1$next y$n1s32 y$n0s32)))
(assert (= y$v3_1517448493_42$next_op (Add_32_32_32 y$v3_1517448493_40$next_op y$v3_1517448493_41$next_op)))
(assert (= y$1751 (not (= y$n0s32 y$v3_1517448493_42$next_op))))
(assert (= y$1752 (and y$1749 y$1750 y$1751)))
(assert (= y$1752 (not y$1754)))
(assert (= y$1740 (not (= y$n0s32 y$v3_1517448493_42_op))))
(assert (= y$1748 (and y$1 y$3 y$1740)))
(assert (= y$1748 (not y$1753)))
(assert (= y$1763 (and y$1 y$3 y$5 y$7 y$9 y$11 y$13 y$15 y$17 y$19 y$21 y$23 y$25 y$27 y$29 y$31 y$33 y$35 y$37 y$39 y$41 y$44 y$46 y$48 y$50 y$52 y$54 y$56 y$58 y$60 y$62 y$64 y$66 y$68 y$70 y$72 y$74 y$1706 y$1667 y$1754 y$1753)))
(assert y$1763)
(check-sat)
(exit)
